6513.0
0 1 0 0 0 0 1 0 1 0 0 1 1 1 1 0 0 0 1 1 
12 18 11 11 19 18 12 13 12 1 11 18 6 19 6 19 18 13 14 14 14 11 14 8 12 8 11 12 13 13 1 19 6 8 14 19 6 19 1 1 1 12 13 12 11 14 8 19 18 19 1 1 1 13 13 14 12 8 14 14 11 11 11 11 11 13 18 18 19 6 18 18 19 19 19 18 18 19 19 19 